p edge 100 480
e 1 9
e 1 15
e 1 17
e 1 27
e 1 46
e 1 49
e 1 50
e 1 54
e 1 58
e 1 62
e 1 65
e 1 68
e 1 72
e 1 90
e 1 93
e 1 98
e 2 3
e 2 4
e 2 16
e 2 19
e 2 24
e 2 27
e 2 31
e 2 32
e 2 34
e 2 57
e 2 62
e 2 78
e 2 87
e 3 25
e 3 31
e 3 34
e 3 45
e 3 54
e 3 63
e 3 76
e 3 100
e 4 25
e 4 53
e 4 56
e 4 58
e 4 62
e 4 66
e 4 80
e 5 23
e 5 27
e 5 43
e 5 53
e 5 62
e 5 80
e 5 96
e 5 98
e 5 100
e 6 17
e 6 21
e 6 35
e 6 48
e 6 74
e 6 83
e 6 86
e 6 88
e 6 93
e 7 10
e 7 14
e 7 19
e 7 21
e 7 29
e 7 30
e 7 31
e 7 48
e 7 54
e 7 73
e 8 13
e 8 22
e 8 24
e 8 32
e 8 37
e 8 54
e 8 57
e 8 70
e 8 88
e 8 97
e 9 14
e 9 17
e 9 21
e 9 27
e 9 30
e 9 35
e 9 46
e 9 50
e 9 56
e 9 59
e 9 81
e 9 92
e 10 19
e 10 55
e 10 62
e 10 71
e 10 81
e 11 14
e 11 20
e 11 25
e 11 31
e 11 36
e 11 54
e 11 65
e 11 72
e 11 76
e 11 83
e 11 89
e 11 95
e 12 23
e 12 28
e 12 56
e 12 70
e 12 72
e 12 74
e 12 85
e 12 95
e 12 98
e 12 100
e 13 20
e 13 23
e 13 48
e 13 52
e 13 67
e 13 77
e 13 80
e 13 90
e 13 93
e 13 96
e 14 35
e 14 39
e 14 45
e 14 64
e 14 68
e 14 80
e 14 93
e 15 40
e 15 46
e 15 53
e 15 60
e 15 83
e 15 92
e 15 93
e 15 94
e 15 96
e 16 17
e 16 18
e 16 23
e 16 24
e 16 47
e 16 60
e 16 61
e 16 63
e 16 66
e 16 94
e 17 39
e 17 72
e 17 88
e 18 23
e 18 35
e 18 57
e 18 72
e 18 74
e 18 84
e 18 94
e 18 97
e 18 100
e 19 21
e 19 25
e 19 44
e 19 52
e 19 53
e 19 74
e 19 79
e 19 89
e 19 94
e 19 96
e 20 23
e 20 48
e 20 63
e 20 64
e 20 70
e 20 90
e 20 91
e 21 24
e 21 38
e 21 49
e 21 81
e 21 97
e 21 99
e 22 26
e 22 31
e 22 34
e 22 49
e 22 50
e 22 63
e 22 90
e 23 27
e 23 28
e 23 49
e 23 51
e 23 75
e 23 87
e 23 99
e 24 40
e 24 50
e 24 90
e 24 91
e 24 97
e 25 32
e 25 45
e 25 47
e 25 76
e 25 84
e 26 31
e 26 40
e 26 44
e 26 46
e 26 59
e 26 65
e 26 78
e 26 86
e 26 100
e 27 31
e 27 33
e 27 43
e 27 57
e 27 94
e 27 98
e 28 40
e 28 63
e 29 58
e 29 60
e 29 61
e 29 68
e 29 73
e 29 75
e 29 81
e 29 92
e 29 96
e 30 36
e 30 38
e 30 56
e 30 57
e 30 76
e 30 85
e 30 90
e 31 33
e 31 52
e 31 53
e 31 61
e 31 65
e 31 71
e 31 76
e 31 77
e 31 78
e 31 81
e 31 89
e 32 33
e 32 38
e 32 54
e 32 61
e 32 63
e 32 71
e 32 75
e 32 81
e 32 86
e 32 87
e 33 35
e 33 51
e 33 95
e 34 39
e 34 41
e 34 57
e 34 64
e 34 85
e 34 99
e 35 73
e 35 93
e 36 45
e 36 49
e 36 65
e 36 69
e 36 97
e 37 47
e 37 52
e 37 54
e 37 71
e 37 77
e 37 96
e 37 97
e 38 51
e 38 56
e 38 74
e 38 79
e 38 86
e 38 94
e 38 96
e 39 40
e 39 44
e 39 46
e 39 49
e 39 52
e 39 67
e 39 83
e 39 95
e 40 45
e 40 54
e 40 58
e 40 63
e 40 69
e 40 80
e 40 89
e 40 91
e 41 42
e 41 63
e 41 66
e 41 84
e 41 86
e 41 88
e 41 92
e 41 93
e 41 99
e 42 48
e 42 50
e 42 51
e 42 59
e 42 99
e 43 45
e 43 53
e 43 67
e 43 80
e 44 55
e 44 89
e 45 46
e 45 56
e 45 61
e 45 71
e 45 79
e 46 47
e 46 62
e 47 49
e 47 60
e 47 63
e 47 72
e 47 75
e 47 80
e 47 88
e 48 62
e 48 69
e 48 77
e 48 79
e 48 80
e 48 91
e 48 93
e 48 96
e 48 100
e 49 61
e 49 63
e 49 69
e 49 94
e 50 53
e 50 57
e 50 62
e 50 66
e 50 72
e 50 73
e 50 77
e 51 86
e 52 66
e 52 74
e 52 77
e 52 87
e 52 93
e 53 54
e 53 58
e 53 82
e 53 86
e 54 57
e 54 63
e 54 79
e 55 77
e 55 81
e 56 61
e 56 73
e 56 77
e 56 89
e 56 97
e 57 59
e 57 63
e 57 75
e 57 90
e 57 92
e 57 93
e 58 62
e 58 63
e 58 74
e 58 85
e 58 87
e 58 96
e 58 98
e 59 60
e 59 67
e 59 93
e 60 61
e 60 64
e 60 67
e 60 80
e 61 70
e 61 92
e 62 65
e 62 76
e 62 78
e 62 80
e 62 84
e 62 92
e 63 67
e 63 81
e 64 66
e 64 76
e 64 82
e 64 84
e 64 86
e 64 90
e 65 88
e 65 97
e 66 81
e 66 83
e 67 71
e 67 74
e 67 84
e 68 77
e 68 78
e 68 92
e 68 93
e 69 94
e 69 96
e 70 84
e 70 94
e 70 97
e 71 78
e 71 86
e 71 89
e 71 97
e 74 78
e 74 96
e 75 80
e 75 88
e 76 90
e 77 80
e 77 83
e 77 85
e 77 95
e 78 87
e 78 100
e 79 87
e 80 81
e 81 86
e 81 93
e 81 100
e 82 90
e 82 93
e 83 84
e 83 98
e 85 91
e 86 88
e 86 96
e 86 98
e 87 93
e 87 97
e 89 94
e 90 94
e 90 98
e 93 97
e 94 97
e 94 100
e 96 98
e 98 99
